HUN,8,6,784
0,18,1,16,2,22,5,20,3,12,4,20
2,28,1,13,0,24,5,8,3,17,4,6
0,20,1,20,2,3,3,28,5,26,4,23
1,28,2,26,0,18,4,20,5,5,3,7
0,29,1,16,2,28,4,3,3,1,5,26
2,1,1,28,0,14,3,1,5,22,4,2
1,26,0,24,2,11,3,24,5,3,4,10
1,28,0,25,2,13,5,17,4,18,3,24
